 vasp.5.4.1 24Jun15 (build Nov 27 2017 14:44:51) complex

 executed on           IFC91_ompi date 2018.09.04  11:56:51

 INCAR:
 POTCAR:    PAW_PBE Al 04Jan2001
 POTCAR:    PAW_PBE Al 04Jan2001
   VRHFIN =Al: s2p1

   TITEL  = PAW_PBE Al 04Jan2001
   POMASS =   26.981; ZVAL   =    3.000    mass and valenz
   ENMAX  =  240.300; ENMIN  =  180.225 eV

  PAW_PBE Al 04Jan2001                  :

 POSCAR: CIF file
  positions in direct lattice
 exchange correlation table for  LEXCH =        8
   RHO(1)=    0.500       N(1)  =     2000
   RHO(2)=  100.500       N(2)  =     4000

 ion  position               nearest neighbor table
   1  0.000  0.000  0.000-   2 2.86   3 2.86   4 2.86   3 2.86   4 2.86   2 2.86   4 2.86   4 2.86
                             2 2.86   3 2.86   3 2.86   2 2.86
   2  0.500  0.500  0.000-   1 2.86   3 2.86   4 2.86   3 2.86   4 2.86   1 2.86   3 2.86   3 2.86
                             1 2.86   4 2.86   4 2.86   1 2.86
   3  0.500  0.000  0.500-   1 2.86   2 2.86   4 2.86   1 2.86   2 2.86   2 2.86   4 2.86   2 2.86
                             1 2.86   4 2.86   1 2.86   4 2.86
   4  0.000  0.500  0.500-   1 2.86   2 2.86   3 2.86   1 2.86   2 2.86   1 2.86   3 2.86   1 2.86
                             2 2.86   3 2.86   2 2.86   3 2.86

  LATTYP: Found a simple cubic cell.
 ALAT       =     4.0500000000

  Lattice vectors:

 A1 = (   4.0500000000,   0.0000000000,   0.0000000000)
 A2 = (   0.0000000000,   4.0500000000,   0.0000000000)
 A3 = (   0.0000000000,   0.0000000000,   4.0500000000)

Analysis of symmetry for initial positions (statically):
 Subroutine PRICEL returns following result:

  LATTYP: Found a face centered cubic cell.
 ALAT       =     4.0500000000

[...]

   4 primitive cells build up your supercell.

 Routine SETGRP: Setting up the symmetry group for a
 simple cubic supercell.

 Subroutine GETGRP returns: Found 48 space group operations
 (whereof 48 operations were pure point group operations)
 out of a pool of 48 trial point group operations.

The static configuration has the point symmetry O_h .

Analysis of symmetry for dynamics (positions and initial velocities):
 Subroutine PRICEL returns following result:

  LATTYP: Found a face centered cubic cell.
 ALAT       =     4.0500000000

  Lattice vectors:

 A1 = (   2.0250000000,   2.0250000000,   0.0000000000)
 A2 = (   2.0250000000,   0.0000000000,  -2.0250000000)
 A3 = (   0.0000000000,   2.0250000000,  -2.0250000000)

   4 primitive cells build up your supercell.

 Routine SETGRP: Setting up the symmetry group for a
 simple cubic supercell.

 Subroutine GETGRP returns: Found 48 space group operations
 (whereof 48 operations were pure point group operations)
 out of a pool of 48 trial point group operations.

The dynamic configuration has the point symmetry O_h .

 Subroutine INISYM returns: Found 48 space group operations
 (whereof 48 operations are pure point group operations),
 and found     4 'primitive' translations

 KPOINTS: KPOINTS file

Automatic generation of k-mesh.
Space group operators:
 irot       det(A)        alpha          n_x          n_y          n_z        tau_x        tau_y        tau_z
    1     1.000000     0.000001     1.000000     0.000000     0.000000     0.000000     0.000000     0.000000
    2    -1.000000     0.000001     1.000000     0.000000     0.000000     0.000000     0.000000     0.000000
    3     1.000000   120.000000    -0.577350    -0.577350    -0.577350     0.000000     0.000000     0.000000
    4    -1.000000   120.000000    -0.577350    -0.577350    -0.577350     0.000000     0.000000     0.000000
    5     1.000000   120.000000     0.577350     0.577350     0.577350     0.000000     0.000000     0.000000
    6    -1.000000   120.000000     0.577350     0.577350     0.577350     0.000000     0.000000     0.000000
    7     1.000000    90.000000     0.000000     0.000000    -1.000000     0.000000     0.000000     0.000000
    8    -1.000000    90.000000     0.000000     0.000000    -1.000000     0.000000     0.000000     0.000000
    9     1.000000   180.000000     0.000000     0.707107     0.707107     0.000000     0.000000     0.000000
   10    -1.000000   180.000000     0.000000     0.707107     0.707107     0.000000     0.000000     0.000000
   11     1.000000    90.000000     0.000000     1.000000     0.000000     0.000000     0.000000     0.000000
   12    -1.000000    90.000000     0.000000     1.000000     0.000000     0.000000     0.000000     0.000000
   13     1.000000   180.000000     0.000000     0.000000     1.000000     0.000000     0.000000     0.000000
   14    -1.000000   180.000000     0.000000     0.000000     1.000000     0.000000     0.000000     0.000000
   15     1.000000   120.000000    -0.577350     0.577350     0.577350     0.000000     0.000000     0.000000
   16    -1.000000   120.000000    -0.577350     0.577350     0.577350     0.000000     0.000000     0.000000
   17     1.000000   120.000000    -0.577350     0.577350    -0.577350     0.000000     0.000000     0.000000
   18    -1.000000   120.000000    -0.577350     0.577350    -0.577350     0.000000     0.000000     0.000000
   19     1.000000    90.000000     0.000000     0.000000     1.000000     0.000000     0.000000     0.000000
   20    -1.000000    90.000000     0.000000     0.000000     1.000000     0.000000     0.000000     0.000000
   21     1.000000    90.000000    -1.000000     0.000000     0.000000     0.000000     0.000000     0.000000
   22    -1.000000    90.000000    -1.000000     0.000000     0.000000     0.000000     0.000000     0.000000
   23     1.000000   180.000000     0.707107     0.000000     0.707107     0.000000     0.000000     0.000000
   24    -1.000000   180.000000     0.707107     0.000000     0.707107     0.000000     0.000000     0.000000
   25     1.000000   120.000000     0.577350    -0.577350     0.577350     0.000000     0.000000     0.000000
   26    -1.000000   120.000000     0.577350    -0.577350     0.577350     0.000000     0.000000     0.000000
   27     1.000000   120.000000    -0.577350    -0.577350     0.577350     0.000000     0.000000     0.000000
   28    -1.000000   120.000000    -0.577350    -0.577350     0.577350     0.000000     0.000000     0.000000
   29     1.000000   180.000000     1.000000     0.000000     0.000000     0.000000     0.000000     0.000000
   30    -1.000000   180.000000     1.000000     0.000000     0.000000     0.000000     0.000000     0.000000
   31     1.000000    90.000000     0.000000    -1.000000     0.000000     0.000000     0.000000     0.000000
   32    -1.000000    90.000000     0.000000    -1.000000     0.000000     0.000000     0.000000     0.000000
   33     1.000000   180.000000     0.707107     0.707107     0.000000     0.000000     0.000000     0.000000
   34    -1.000000   180.000000     0.707107     0.707107     0.000000     0.000000     0.000000     0.000000
   35     1.000000    90.000000     1.000000     0.000000     0.000000     0.000000     0.000000     0.000000
   36    -1.000000    90.000000     1.000000     0.000000     0.000000     0.000000     0.000000     0.000000
   37     1.000000   120.000000     0.577350    -0.577350    -0.577350     0.000000     0.000000     0.000000
   38    -1.000000   120.000000     0.577350    -0.577350    -0.577350     0.000000     0.000000     0.000000
   39     1.000000   180.000000     0.000000     1.000000     0.000000     0.000000     0.000000     0.000000
   40    -1.000000   180.000000     0.000000     1.000000     0.000000     0.000000     0.000000     0.000000
   41     1.000000   120.000000     0.577350     0.577350    -0.577350     0.000000     0.000000     0.000000
   42    -1.000000   120.000000     0.577350     0.577350    -0.577350     0.000000     0.000000     0.000000
   43     1.000000   180.000000     0.000000    -0.707107     0.707107     0.000000     0.000000     0.000000
   44    -1.000000   180.000000     0.000000    -0.707107     0.707107     0.000000     0.000000     0.000000
   45     1.000000   180.000000     0.707107    -0.707107     0.000000     0.000000     0.000000     0.000000
   46    -1.000000   180.000000     0.707107    -0.707107     0.000000     0.000000     0.000000     0.000000
   47     1.000000   180.000000     0.707107     0.000000    -0.707107     0.000000     0.000000     0.000000
   48    -1.000000   180.000000     0.707107     0.000000    -0.707107     0.000000     0.000000     0.000000

 Subroutine IBZKPT returns following result:

 Found    165 irreducible k-points:

 Following reciprocal coordinates:
            Coordinates               Weight
  0.000000  0.000000  0.000000      1.000000
  0.058824  0.000000  0.000000      6.000000
  0.117647  0.000000  0.000000      6.000000
  0.176471  0.000000  0.000000      6.000000
  0.235294  0.000000  0.000000      6.000000
  0.294118  0.000000  0.000000      6.000000
  0.352941  0.000000  0.000000      6.000000
  0.411765  0.000000  0.000000      6.000000
  0.470588  0.000000  0.000000      6.000000
  0.058824  0.058824  0.000000     12.000000
  0.117647  0.058824  0.000000     24.000000
  0.176471  0.058824  0.000000     24.000000
  0.235294  0.058824  0.000000     24.000000
  0.294118  0.058824  0.000000     24.000000
  0.352941  0.058824  0.000000     24.000000
  0.411765  0.058824  0.000000     24.000000
  0.470588  0.058824  0.000000     24.000000
  0.117647  0.117647  0.000000     12.000000
  0.176471  0.117647  0.000000     24.000000
  0.235294  0.117647  0.000000     24.000000
  0.294118  0.117647  0.000000     24.000000
  0.352941  0.117647  0.000000     24.000000
  0.411765  0.117647  0.000000     24.000000
  0.470588  0.117647  0.000000     24.000000
  0.176471  0.176471  0.000000     12.000000
  0.235294  0.176471  0.000000     24.000000
  0.294118  0.176471  0.000000     24.000000
  0.352941  0.176471  0.000000     24.000000
  0.411765  0.176471  0.000000     24.000000
  0.470588  0.176471  0.000000     24.000000
  0.235294  0.235294  0.000000     12.000000
  0.294118  0.235294  0.000000     24.000000
  0.352941  0.235294  0.000000     24.000000
  0.411765  0.235294  0.000000     24.000000
  0.470588  0.235294  0.000000     24.000000
  0.294118  0.294118  0.000000     12.000000
  0.352941  0.294118  0.000000     24.000000
  0.411765  0.294118  0.000000     24.000000
  0.470588  0.294118  0.000000     24.000000
  0.352941  0.352941  0.000000     12.000000
  0.411765  0.352941  0.000000     24.000000
  0.470588  0.352941  0.000000     24.000000
  0.411765  0.411765  0.000000     12.000000
  0.470588  0.411765  0.000000     24.000000
  0.470588  0.470588  0.000000     12.000000
  0.058824  0.058824  0.058824      8.000000
  0.117647  0.058824  0.058824     24.000000
  0.176471  0.058824  0.058824     24.000000
  0.235294  0.058824  0.058824     24.000000
  0.294118  0.058824  0.058824     24.000000
  0.352941  0.058824  0.058824     24.000000
  0.411765  0.058824  0.058824     24.000000
  0.470588  0.058824  0.058824     24.000000
  0.117647  0.117647  0.058824     24.000000
  0.176471  0.117647  0.058824     48.000000
  0.235294  0.117647  0.058824     48.000000
  0.294118  0.117647  0.058824     48.000000
[...]
 k-point 99 :   0.4706 0.2353 0.1176  plane waves:    1685
 k-point ** :   0.2941 0.2941 0.1176  plane waves:    1673
 k-point ** :   0.3529 0.2941 0.1176  plane waves:    1679
 k-point ** :   0.4118 0.2941 0.1176  plane waves:    1676
 k-point ** :   0.4706 0.2941 0.1176  plane waves:    1686
 k-point ** :   0.3529 0.3529 0.1176  plane waves:    1682
 k-point ** :   0.4118 0.3529 0.1176  plane waves:    1685
 k-point ** :   0.4706 0.3529 0.1176  plane waves:    1679
 k-point ** :   0.4118 0.4118 0.1176  plane waves:    1681
 k-point ** :   0.4706 0.4118 0.1176  plane waves:    1684
 k-point ** :   0.4706 0.4706 0.1176  plane waves:    1678
 k-point ** :   0.1765 0.1765 0.1765  plane waves:    1686
 k-point ** :   0.2353 0.1765 0.1765  plane waves:    1690
 k-point ** :   0.2941 0.1765 0.1765  plane waves:    1684
 k-point ** :   0.3529 0.1765 0.1765  plane waves:    1684
 k-point ** :   0.4118 0.1765 0.1765  plane waves:    1683
 k-point ** :   0.4706 0.1765 0.1765  plane waves:    1686
 k-point ** :   0.2353 0.2353 0.1765  plane waves:    1690
 k-point ** :   0.2941 0.2353 0.1765  plane waves:    1686
 k-point ** :   0.3529 0.2353 0.1765  plane waves:    1684
 k-point ** :   0.4118 0.2353 0.1765  plane waves:    1687
 k-point ** :   0.4706 0.2353 0.1765  plane waves:    1695
 k-point ** :   0.2941 0.2941 0.1765  plane waves:    1684
 k-point ** :   0.3529 0.2941 0.1765  plane waves:    1677
 k-point ** :   0.4118 0.2941 0.1765  plane waves:    1686
 k-point ** :   0.4706 0.2941 0.1765  plane waves:    1690
 k-point ** :   0.3529 0.3529 0.1765  plane waves:    1683
 k-point ** :   0.4118 0.3529 0.1765  plane waves:    1683
 k-point ** :   0.4706 0.3529 0.1765  plane waves:    1692
 k-point ** :   0.4118 0.4118 0.1765  plane waves:    1683
 k-point ** :   0.4706 0.4118 0.1765  plane waves:    1681
 k-point ** :   0.4706 0.4706 0.1765  plane waves:    1684
 k-point ** :   0.2353 0.2353 0.2353  plane waves:    1689
 k-point ** :   0.2941 0.2353 0.2353  plane waves:    1682
 k-point ** :   0.3529 0.2353 0.2353  plane waves:    1683
 k-point ** :   0.4118 0.2353 0.2353  plane waves:    1692
 k-point ** :   0.4706 0.2353 0.2353  plane waves:    1688
 k-point ** :   0.2941 0.2941 0.2353  plane waves:    1683
 k-point ** :   0.3529 0.2941 0.2353  plane waves:    1685
 k-point ** :   0.4118 0.2941 0.2353  plane waves:    1688
 k-point ** :   0.4706 0.2941 0.2353  plane waves:    1687
 k-point ** :   0.3529 0.3529 0.2353  plane waves:    1675
 k-point ** :   0.4118 0.3529 0.2353  plane waves:    1685
 k-point ** :   0.4706 0.3529 0.2353  plane waves:    1689
 k-point ** :   0.4118 0.4118 0.2353  plane waves:    1687
 k-point ** :   0.4706 0.4118 0.2353  plane waves:    1684
 k-point ** :   0.4706 0.4706 0.2353  plane waves:    1685
 k-point ** :   0.2941 0.2941 0.2941  plane waves:    1688
 k-point ** :   0.3529 0.2941 0.2941  plane waves:    1684
 k-point ** :   0.4118 0.2941 0.2941  plane waves:    1686
 k-point ** :   0.4706 0.2941 0.2941  plane waves:    1692
 k-point ** :   0.3529 0.3529 0.2941  plane waves:    1692
 k-point ** :   0.4118 0.3529 0.2941  plane waves:    1693
 k-point ** :   0.4706 0.3529 0.2941  plane waves:    1691
 k-point ** :   0.4118 0.4118 0.2941  plane waves:    1693
 k-point ** :   0.4706 0.4118 0.2941  plane waves:    1681
 k-point ** :   0.4706 0.4706 0.2941  plane waves:    1685
 k-point ** :   0.3529 0.3529 0.3529  plane waves:    1694
 k-point ** :   0.4118 0.3529 0.3529  plane waves:    1684
 k-point ** :   0.4706 0.3529 0.3529  plane waves:    1690
 k-point ** :   0.4118 0.4118 0.3529  plane waves:    1682
 k-point ** :   0.4706 0.4118 0.3529  plane waves:    1682
 k-point ** :   0.4706 0.4706 0.3529  plane waves:    1679
 k-point ** :   0.4118 0.4118 0.4118  plane waves:    1679
 k-point ** :   0.4706 0.4118 0.4118  plane waves:    1681
 k-point ** :   0.4706 0.4706 0.4118  plane waves:    1678
 k-point ** :   0.4706 0.4706 0.4706  plane waves:    1670

 maximum and minimum number of plane-waves per node :       306      264

 maximum number of plane-waves:      1743
 maximum index in each direction:
   IXMAX=    7   IYMAX=    7   IZMAX=    7
   IXMIN=   -7   IYMIN=   -7   IZMIN=   -7

 NGX is ok and might be reduce to  30
 NGY is ok and might be reduce to  30
 NGZ is ok and might be reduce to  30

 parallel 3D FFT for wavefunctions:
    minimum data exchange during FFTs selected (reduces bandwidth)
 parallel 3D FFT for charge:
    minimum data exchange during FFTs selected (reduces bandwidth)

 Broyden mixing: mesh for mixing (old mesh)
   NGX = 15   NGY = 15   NGZ = 15
  (NGX  = 60   NGY  = 60   NGZ  = 60)
  gives a total of   3375 points

 initial charge density was supplied:
 charge density of overlapping atoms calculated
 number of electron      12.0000000 magnetization
 keeping initial charge density in first step

 Maximum index for augmentation-charges         1335 (set IRDMAX)

 First call to EWALD:  gamma=   0.438
 Maximum number of real-space cells 3x 3x 3
 Maximum number of reciprocal cells 3x 3x 3

 FEWALD executed in parallel

----------------------------------------- Iteration    1(   1)  ---------------------------------------

 eigenvalue-minimisations  :  3300
 total energy-change (2. order) : 0.9022850E+01  (-0.4200616E+03)
 number of electron      12.0000000 magnetization
 augmentation part       12.0000000 magnetization

 Free energy of the ion-electron system (eV)
  alpha Z        PSCENC =        -0.80898476
  Ewald energy   TEWEN  =      -293.42683892
  -Hartree energ DENC   =        -0.41547172
  -exchange      EXHF   =         0.00000000
  -V(xc)+E(xc)   XCENC  =      -105.00570319
  PAW double counting   =       264.80062850     -136.98248303
  entropy T*S    EENTRO =        -0.00023864
  eigenvalues    EBANDS =        66.70830001
  atomic energy  EATOM  =       214.15364153
  Solvation  Ediel_sol  =         0.00000000
  free energy    TOTEN  =         9.02284979 eV

  energy without entropy =        9.02308843  energy(sigma->0) =        9.02290945

[...]

 eigenvalue-minimisations  :  4212
 total energy-change (2. order) :-0.2331765E+02  (-0.2199533E+02)
 number of electron      12.0000000 magnetization
 augmentation part       12.0000000 magnetization

[...]

 Broyden mixing:
  rms(total) = 0.25885E+00    rms(broyden)= 0.25885E+00
  rms(prec ) = 0.46941E+00
  weight for this iteration     100.00

[...]

 eigenvalues of (default mixing * dielectric matrix)
  average eigenvalue GAMMA=   2.3395
  2.3395

[...]

 average (electrostatic) potential at core
  the test charge radii are     1.0406
  (the norm of the test charge is              1.0000)
       1 -72.7056       2 -72.7056       3 -72.7056       4 -72.7056

 E-fermi :   7.9613     XC(G=0): -10.1732     alpha+bet :-14.7800

 k-point     1 :       0.0000    0.0000    0.0000
  band No.  band energies     occupation
      1      -3.1571      2.00000
      2       5.0244      2.00000
      3       5.0244      2.00000
      4       5.0244      2.00000
      5       6.3328      2.00000
      6       6.3328      2.00000
      7       6.3328      2.00000
      8      13.1888      0.00000
      9      13.1888      0.00000
     10      13.1888      0.00000

[...]

 soft charge-density along one line, spin component           1
         0         1         2         3         4         5         6         7         8         9
 total charge-density along one line

------------------------ aborting loop because EDIFF is reached ----------------------------------------

  FORCE on cell =-STRESS in cart. coord.  units (eV):
  Direction    XX          YY          ZZ          XY          YZ          ZX
  Alpha Z    -0.80898    -0.80898    -0.80898
  Ewald     -97.80899   -97.80899   -97.80899     0.00000     0.00000     0.00000
  Hartree     0.13861     0.13861     0.13861     0.00000     0.00000     0.00000
  E(xc)     -34.18338   -34.18338   -34.18338     0.00000     0.00000     0.00000
  Local       1.29372     1.29372     1.29372     0.00000     0.00000     0.00000
  n-local    74.20151    75.10781    76.99105     0.26066     0.97573     0.41570
  augment    -4.14161    -4.14161    -4.14161     0.00000     0.00000     0.00000
  Kinetic    57.13035    59.01308    63.28737     1.59939    -8.20449    -1.81630
  Fock        0.00000     0.00000     0.00000     0.00000     0.00000     0.00000
  Total      -0.26691    -0.26691    -0.26691     0.00000     0.00000     0.00000
  in kB      -6.43730    -6.43730    -6.43730     0.00000     0.00000     0.00000

 VOLUME and BASIS-vectors are now :
  energy-cutoff  :      500.00
  volume of cell :       66.43
      direct lattice vectors                 reciprocal lattice vectors
     4.050000000  0.000000000  0.000000000     0.246913580  0.000000000  0.000000000
     0.000000000  4.050000000  0.000000000     0.000000000  0.246913580  0.000000000
     0.000000000  0.000000000  4.050000000     0.000000000  0.000000000  0.246913580

[...]

 FORCES acting on ions
    electron-ion (+dipol)            ewald-force                    non-local-force                 convergence-correction
   0.504E-15 0.625E-15 -.154E-14   -.537E-15 0.393E-15 -.297E-16   -.808E-27 -.646E-26 0.129E-25   0.212E-15 -.121E-17 0.200E-15
   -.196E-14 -.641E-14 -.198E-13   -.421E-16 0.705E-15 -.254E-16   0.000E+00 -.129E-25 -.969E-26   -.214E-15 0.524E-17 0.200E-15
   -.303E-14 -.396E-15 0.219E-13   0.625E-15 -.675E-15 -.328E-16   0.000E+00 -.129E-25 0.323E-26   -.221E-15 -.878E-17 -.199E-15
   0.511E-15 -.325E-14 -.268E-14   -.215E-15 -.363E-15 -.285E-16   0.000E+00 -.323E-26 0.162E-25   0.209E-15 0.637E-18 -.202E-15
   -.398E-14 -.943E-14 -.210E-14   -.169E-15 0.601E-16 -.116E-15   -.808E-27 -.355E-25 0.226E-25   -.133E-16 -.411E-17 -.133E-17

 POSITION                                       TOTAL-FORCE (eV/Angst)
      0.00000      0.00000      0.00000         0.000000      0.000000      0.000000
      2.02500      2.02500      0.00000         0.000000      0.000000      0.000000
      2.02500      0.00000      2.02500         0.000000      0.000000      0.000000
      0.00000      2.02500      2.02500         0.000000      0.000000      0.000000
    total drift:                                0.000000      0.000000      0.000000

  FREE ENERGIE OF THE ION-ELECTRON SYSTEM (eV)
  free  energy   TOTEN  =       -14.97986748 eV

  energy  without entropy=      -14.97829172  energy(sigma->0) =      -14.97947354

[...]

 d Force = 0.0000000E+00[ 0.000E+00, 0.000E+00]  d Energy = 0.1127365E-02-0.113E-02
 d Force = 0.0000000E+00[ 0.000E+00, 0.000E+00]  d Ewald  = 0.9476094E+00-0.948E+00

 Steepest descent step on ions:
 trial-energy change:   -0.001127  1 .order   -0.001109   -0.002578    0.000359
  (g-gl).g = 0.258E-02      g.g   = 0.258E-02  gl.gl    = 0.000E+00
 g(Force)  = 0.405E-64   g(Stress)= 0.258E-02 ortho     = 0.000E+00
 gamma     =   0.00000
 trial     =   1.00000
 opt step  =   0.88164  (harmonic =   0.87780) maximal distance =0.00000000
 next E    =   -14.981016   (d E  =  -0.00115)

 FEWALD executed in parallel

[...]

 eigenvalue-minimisations  :  1764
 total energy-change (2. order) : 0.2599791E-07  (-0.4919759E-10)
 number of electron      12.0000000 magnetization
 augmentation part       -0.1544443 magnetization

 Broyden mixing:
  rms(total) = 0.16478E-05    rms(broyden)= 0.16478E-05
  rms(prec ) = 0.25261E-05
  weight for this iteration     100.00

 eigenvalues of (default mixing * dielectric matrix)
  average eigenvalue GAMMA=   1.8225
  2.6383  2.6383  0.9536  1.0598

[...]

----------------------------------------- Iteration    3(   6)  ---------------------------------------

 eigenvalue-minimisations  :  1726
 total energy-change (2. order) :-0.1690523E-08  (-0.7350002E-11)
 number of electron      12.0000000 magnetization
 augmentation part       -0.1544443 magnetization

 Free energy of the ion-electron system (eV)
  alpha Z        PSCENC =        -0.81591185
  Ewald energy   TEWEN  =      -294.26196817
  -Hartree energ DENC   =        -0.42063453
  -exchange      EXHF   =         0.00000000
  -V(xc)+E(xc)   XCENC  =      -104.50334982
  PAW double counting   =       563.91447882     -436.14662958
  entropy T*S    EENTRO =        -0.00134937
  eigenvalues    EBANDS =        43.10070762
  atomic energy  EATOM  =       214.15364153
  Solvation  Ediel_sol  =         0.00000000
  free energy    TOTEN  =       -14.98101535 eV

  energy without entropy =      -14.97966598  energy(sigma->0) =      -14.98067801

 average (electrostatic) potential at core
  the test charge radii are     1.0406
  (the norm of the test charge is              1.0000)
       1 -72.6048       2 -72.6048       3 -72.6048       4 -72.6048

 E-fermi :   8.0516     XC(G=0): -10.2040     alpha+bet :-14.9066

[...]

 k-point   165 :       0.4706    0.4706    0.4706
  band No.  band energies     occupation
      1       2.7762      2.00000
      2       3.2737      2.00000
      3       3.2737      2.00000
      4       3.2737      2.00000
      5       3.8297      2.00000
      6       3.8297      2.00000
      7       3.8297      2.00000
      8       4.3242      2.00000
      9      18.7635      0.00000
     10      18.7757      0.00000

 soft charge-density along one line, spin component           1
         0         1         2         3         4         5         6         7         8         9
 total charge-density along one line

------------------------ aborting loop because EDIFF is reached ----------------------------------------

  FORCE on cell =-STRESS in cart. coord.  units (eV):
  Direction    XX          YY          ZZ          XY          YZ          ZX
  Alpha Z    -0.81591    -0.81591    -0.81591
  Ewald     -98.08737   -98.08737   -98.08737     0.00000     0.00000     0.00000
  Hartree     0.14021     0.14021     0.14021     0.00000     0.00000     0.00000
  E(xc)     -34.27498   -34.27498   -34.27498     0.00000     0.00000     0.00000
  Local       1.44305     1.44305     1.44305     0.00000     0.00000     0.00000
  n-local    74.31342    75.23432    77.17812     0.28724     1.01472     0.43457
  augment    -4.11947    -4.11947    -4.11947     0.00000     0.00000     0.00000
  Kinetic    57.44761    59.33722    63.63471     1.59476    -8.24140    -1.81028
  Fock        0.00000     0.00000     0.00000     0.00000     0.00000     0.00000
  Total       0.00067     0.00067     0.00067     0.00000     0.00000     0.00000
  in kB       0.01619     0.01619     0.01619     0.00000     0.00000     0.00000

 VOLUME and BASIS-vectors are now :
  energy-cutoff  :      500.00
  volume of cell :       65.87
      direct lattice vectors                 reciprocal lattice vectors
     4.038505910  0.000000000  0.000000000     0.247616327  0.000000000  0.000000000
     0.000000000  4.038505910  0.000000000     0.000000000  0.247616327  0.000000000
     0.000000000  0.000000000  4.038505910     0.000000000  0.000000000  0.247616327

  length of vectors
     4.038505910  4.038505910  4.038505910     0.247616327  0.247616327  0.247616327

 FORCES acting on ions
    electron-ion (+dipol)            ewald-force                    non-local-force                 convergence-correction
   -.519E-14 -.148E-16 -.176E-14   -.897E-15 -.772E-15 -.153E-15   -.161E-26 -.485E-26 -.323E-26   -.915E-15 -.211E-16 0.137E-15
   0.218E-14 -.796E-14 -.197E-13   0.130E-15 0.212E-15 -.164E-15   -.162E-26 -.162E-26 0.182E-26   0.901E-15 0.383E-16 0.136E-15
   0.198E-14 0.311E-15 0.228E-13   0.551E-15 -.172E-15 0.194E-15   -.242E-26 0.807E-27 0.162E-26   0.901E-15 -.395E-16 -.136E-15
   -.550E-14 -.289E-14 -.274E-14   0.236E-15 0.812E-15 0.182E-15   -.808E-27 0.808E-27 -.145E-26   -.919E-15 0.228E-16 -.140E-15
   -.653E-14 -.106E-13 -.136E-14   0.203E-16 0.804E-16 0.596E-16   -.646E-26 -.485E-26 -.125E-26   -.320E-16 0.492E-18 -.251E-17

 POSITION                                       TOTAL-FORCE (eV/Angst)
      0.00000      0.00000      0.00000         0.000000      0.000000      0.000000
      2.01925      2.01925      0.00000         0.000000      0.000000      0.000000
      2.01925      0.00000      2.01925         0.000000      0.000000      0.000000
      0.00000      2.01925      2.01925         0.000000      0.000000      0.000000
    total drift:                                0.000000      0.000000      0.000000

  FREE ENERGIE OF THE ION-ELECTRON SYSTEM (eV)
  free  energy   TOTEN  =       -14.98101535 eV

  energy  without entropy=      -14.97966598  energy(sigma->0) =      -14.98067801

 d Force = 0.0000000E+00[ 0.000E+00, 0.000E+00]  d Energy = 0.2050653E-04-0.205E-04
 d Force = 0.0000000E+00[ 0.000E+00, 0.000E+00]  d Ewald  =-0.1124801E+00 0.112E+00

 reached required accuracy - stopping structural energy minimisation
 writing wavefunctions